50, 13779
713, 711
840, 840
183, 183
999, 999
195, 195
671, 669
92, 90
758, 756
152, 150
707, 705
725, 723
766, 765
442, 441
866, 864
988, 987
116, 114
517, 516
959, 957
740, 738
445, 444
305, 303
954, 954
86, 84
761, 759
844, 843
158, 156
327, 327
306, 306
543, 543
367, 366
894, 894
925, 924
317, 315
895, 894
70, 69
97, 96
666, 666
800, 798
820, 819
992, 990
860, 858
267, 267
743, 741
925, 924
94, 93
495, 495
155, 153
144, 144
480, 480
671, 669
